data/solutions/planning/wellformed/moderate/highest_rank_objective/wellformed_moderate_instance42_cplex.sol
Elapsed time: 3.76
Nodes explored: 1725
Nodes left: -
Relative gap: -
Upper bound: 152024.0
Lower bound: -
C[0]=10135.0
C[1]=10135.0
C[2]=10135.0
C[3]=10134.0
y[0]=3
y[1]=2
y[2]=1
y[3]=0
y[4]=2
y[5]=1
y[6]=2
y[7]=1
y[8]=3
y[9]=1
y[10]=2
y[11]=2
y[12]=1
y[13]=1
y[14]=3
y[15]=3
y[16]=1
y[17]=0
y[18]=2
y[19]=1
y[20]=1
y[21]=2
y[22]=3
y[23]=0
y[24]=1
y[25]=3
y[26]=0
y[27]=1
y[28]=0
y[29]=0
y[30]=2
y[31]=3
y[32]=3
y[33]=0
y[34]=0
y[35]=0
y[36]=3
y[37]=2
y[38]=3
y[39]=0
