data/solutions/planning/wellformed/moderate/highest_rank_objective/wellformed_moderate_instance42_cplex.log
Found incumbent of value 40539.000000 after 0.00 sec. (0.02 ticks)
Tried aggregator 2 times.
Aggregator did 4 substitutions.
Reduced MIP has 44 rows, 161 columns, and 324 nonzeros.
Reduced MIP has 160 binaries, 0 generals, 0 SOSs, and 0 indicators.
Presolve time = 0.00 sec. (0.38 ticks)
Probing time = 0.00 sec. (0.12 ticks)
Cover probing fixed 0 vars, tightened 3 bounds.
Tried aggregator 1 time.
Reduced MIP has 44 rows, 161 columns, and 324 nonzeros.
Reduced MIP has 160 binaries, 1 generals, 0 SOSs, and 0 indicators.
Presolve time = 0.00 sec. (0.23 ticks)
Probing time = 0.00 sec. (0.07 ticks)
Clique table members: 40.
MIP emphasis: balance optimality and feasibility.
MIP search method: dynamic search.
Parallel mode: none, using 1 thread.
Root relaxation solution time = 0.00 sec. (0.25 ticks)

        Nodes                                         Cuts/
   Node  Left     Objective  IInf  Best Integer    Best Bound    ItCnt     Gap

*     0+    0                        40539.0000     1994.0000            95.08%
      0     0    10134.7500     7    40539.0000    10134.7500       35   75.00%
*     0+    0                        11012.0000    10134.7500             7.97%
      0     0    10135.0000     8    11012.0000       Cuts: 5       46    7.96%
*     0+    0                        10914.0000    10135.0000             7.14%
      0     0    10135.0000     8    10914.0000       Cuts: 9       60    7.14%
      0     0    10135.0000    10    10914.0000       Cuts: 4       67    7.14%
*     0+    0                        10893.0000    10135.0000             6.96%
*     0+    0                        10555.0000    10135.0000             3.98%
*     0+    0                        10552.0000    10135.0000             3.95%
*     0+    0                        10385.0000    10135.0000             2.41%
      0     2    10135.0000     5    10385.0000    10135.0000       68    2.41%
Elapsed time = 0.02 sec. (7.01 ticks, tree = 0.01 MB, solutions = 7)
*    17    17      integral     0    10278.0000    10135.0000      131    1.39%
*    30+   25                        10232.0000    10135.0000             0.95%
*    30+   25                        10209.0000    10135.0000             0.72%
*    40    35      integral     0    10201.0000    10135.0000      173    0.65%
*    49    39      integral     0    10180.0000    10135.0000      185    0.44%
*    50+   38                        10162.0000    10135.0000             0.27%
*    50+   38                        10159.0000    10135.0000             0.24%
*    55    41      integral     0    10143.0000    10135.0000      192    0.08%
*    80+   51                        10136.0000    10135.0000             0.01%

Mixed integer rounding cuts applied:  1

Root node processing (before b&c):
  Real time             =    0.02 sec. (7.01 ticks)
Sequential b&c:
  Real time             =    0.01 sec. (3.59 ticks)
                          ------------
Total (root+branch&cut) =    0.03 sec. (10.61 ticks)

Populate: phase II 
Tried aggregator 2 times.
Aggregator did 4 substitutions.
Reduced MIP has 44 rows, 161 columns, and 324 nonzeros.
Reduced MIP has 160 binaries, 0 generals, 0 SOSs, and 0 indicators.
Presolve time = 0.00 sec. (0.38 ticks)
Probing time = 0.00 sec. (0.12 ticks)
Cover probing fixed 0 vars, tightened 3 bounds.
Clique table members: 40.
MIP emphasis: balance optimality and feasibility.
MIP search method: dynamic search.
Parallel mode: none, using 1 thread.
Root relaxation solution time = 0.00 sec. (0.25 ticks)

        Nodes                                         Cuts/
   Node  Left     Objective  IInf  Best Integer    Best Bound    ItCnt     Gap

*     0+    0                        10136.0000        0.0000           100.00%
      0     0    10134.7500     7    10136.0000    10134.7500       35    0.01%
      0     2    10135.0000     6    10136.0000    10135.0000       35    0.01%
Elapsed time = 0.02 sec. (6.43 ticks, tree = 0.01 MB, solutions = 31)
*     1+    1                        10135.0000    10135.0000             0.00%
      2     4    10135.0000     5    10135.0000    10135.0000       40    0.00%
      3     5    10135.0000     5    10135.0000    10135.0000       47    0.00%
      4     6    10135.0000     4    10135.0000    10135.0000       49    0.00%
      5     7    10135.0000     4    10135.0000    10135.0000       51    0.00%
      6     8    10135.0000     5    10135.0000    10135.0000       61    0.00%
      7     9    10135.0000     4    10135.0000    10135.0000       72    0.00%
      8    10    10135.0000     5    10135.0000    10135.0000       73    0.00%
      9    11    10135.0000     5    10135.0000    10135.0000       75    0.00%
     10    12    10135.0000     5    10135.0000    10135.0000       81    0.00%
   1614  1616    10135.0000     6    10135.0000    10135.0000      171    0.00%
Elapsed time = 3.13 sec. (962.44 ticks, tree = 0.72 MB, solutions = 1972)

Root node processing (before b&c):
  Real time             =    0.50 sec. (8.70 ticks)
Sequential b&c:
  Real time             =    3.23 sec. (991.58 ticks)
                          ------------
Total (root+branch&cut) =    3.73 sec. (1000.28 ticks)
